
Gurobi 9.5.1 (linux64) logging started Thu Apr 14 13:11:57 2022

Set parameter LogFile to value "../results/logs/log_flickrEdges_20_20_2022_04_14_12_05.log"
Gurobi Optimizer version 9.5.1 build v9.5.1rc2 (linux64)
Thread count: 8 physical cores, 8 logical processors, using up to 8 threads
Optimize a model with 211877 rows, 211876 columns and 9691544 nonzeros
Model fingerprint: 0x1dd686aa
Variable types: 0 continuous, 211876 integer (211876 binary)
Coefficient statistics:
  Matrix range     [1e+00, 2e+01]
  Objective range  [1e+00, 1e+00]
  Bounds range     [1e+00, 1e+00]
  RHS range        [1e+00, 2e+01]
Found heuristic solution: objective -0.0000000
Presolve removed 161683 rows and 99253 columns (presolve time = 5s) ...
Presolve removed 161683 rows and 99424 columns (presolve time = 10s) ...
Presolve removed 169230 rows and 103180 columns (presolve time = 15s) ...
Presolve removed 169230 rows and 110774 columns (presolve time = 20s) ...
Presolve removed 169275 rows and 110820 columns (presolve time = 25s) ...
Presolve removed 169313 rows and 110903 columns (presolve time = 30s) ...
Presolve removed 169313 rows and 110903 columns (presolve time = 35s) ...
Presolve removed 169313 rows and 110903 columns
Presolve time: 37.59s
Presolved: 42564 rows, 100973 columns, 7887403 nonzeros
Variable types: 0 continuous, 100973 integer (96874 binary)
Found heuristic solution: objective 1.0000000

Deterministic concurrent LP optimizer: primal simplex, dual simplex, and barrier
Showing barrier log only...

Root barrier log...

Elapsed ordering time = 5s
Elapsed ordering time = 10s
Ordering time: 10.78s

Barrier statistics:
 Dense cols : 782
 AA' NZ     : 5.540e+07
 Factor NZ  : 2.017e+08 (roughly 1.7 GB of memory)
 Factor Ops : 2.276e+12 (roughly 7 seconds per iteration)
 Threads    : 6

Barrier performed 0 iterations in 66.82 seconds (81.06 work units)
Barrier solve interrupted - model solved by another algorithm

Concurrent spin time: 3.65s (can be avoided by choosing Method=3)

Solved with dual simplex

Root relaxation: objective 1.630532e+04, 8500 iterations, 28.33 seconds (42.68 work units)

    Nodes    |    Current Node    |     Objective Bounds      |     Work
 Expl Unexpl |  Obj  Depth IntInf | Incumbent    BestBd   Gap | It/Node Time

     0     0 16305.3175    0 5516    1.00000 16305.3175      -     -   70s
H    0     0                    15815.000000 16305.3175  3.10%     -   70s
     0     0 15972.3021    0 4643 15815.0000 15972.3021  0.99%     -  116s
     0     0 15875.2937    0 4354 15815.0000 15875.2937  0.38%     -  166s
     0     0 15867.3321    0 3828 15815.0000 15867.3321  0.33%     -  186s
     0     0 15866.6268    0 3732 15815.0000 15866.6268  0.33%     -  192s
     0     0 15866.4961    0 3658 15815.0000 15866.4961  0.33%     -  195s
     0     0 15866.4552    0 3657 15815.0000 15866.4552  0.33%     -  197s
     0     0 15851.7965    0 5211 15815.0000 15851.7965  0.23%     -  277s
H    0     0                    15818.000000 15851.7965  0.21%     -  278s
H    0     0                    15820.000000 15851.7965  0.20%     -  278s
H    0     0                    15821.000000 15851.7965  0.19%     -  279s
     0     0 15849.1379    0 5370 15821.0000 15849.1379  0.18%     -  320s
     0     0 15847.6681    0 5668 15821.0000 15847.6681  0.17%     -  355s
     0     0 15846.8522    0 5826 15821.0000 15846.8522  0.16%     -  382s
     0     0 15846.5001    0 5941 15821.0000 15846.5001  0.16%     -  400s
     0     0 15846.3519    0 6052 15821.0000 15846.3519  0.16%     -  414s
     0     0 15846.2571    0 6076 15821.0000 15846.2571  0.16%     -  426s
     0     0 15840.5713    0 6538 15821.0000 15840.5713  0.12%     - 1609s
H    0     0                    15823.000000 15840.5713  0.11%     - 1610s
H    0     0                    15826.000000 15840.5713  0.09%     - 1611s
H    0     0                    15828.000000 15840.5713  0.08%     - 1614s
     0     0 15839.5830    0 6651 15828.0000 15839.5830  0.07%     - 1693s
     0     0 15839.0956    0 6886 15828.0000 15839.0956  0.07%     - 1766s
     0     0 15838.8516    0 6977 15828.0000 15838.8516  0.07%     - 1813s
     0     0 15838.7422    0 7014 15828.0000 15838.7422  0.07%     - 1841s
     0     0 15837.3858    0 6672 15828.0000 15837.3858  0.06%     - 2187s
     0     0 15836.4216    0 6927 15828.0000 15836.4216  0.05%     - 2284s
     0     0 15836.1104    0 7089 15828.0000 15836.1104  0.05%     - 2357s
     0     0 15835.9394    0 7141 15828.0000 15835.9394  0.05%     - 2412s
     0     0 15835.8517    0 7117 15828.0000 15835.8517  0.05%     - 2450s
     0     0 15834.9667    0 7136 15828.0000 15834.9667  0.04%     - 2628s
H    0     0                    15833.000000 15834.9667  0.01%     - 2630s
     0     0 15834.6669    0   21 15833.0000 15834.6669  0.01%     - 2685s
     0     0 15834.6669    0   13 15833.0000 15834.6669  0.01%     - 2686s
     0     0     cutoff    0      15833.0000 15833.0000  0.00%     - 2903s

Cutting planes:
  Gomory: 5
  Cover: 1935
  Implied bound: 100
  MIR: 1318
  StrongCG: 38
  GUB cover: 906
  Zero half: 3
  RLT: 3945
  Relax-and-lift: 1

Explored 1 nodes (437882 simplex iterations) in 2903.20 seconds (6029.05 work units)
Thread count was 8 (of 8 available processors)

Solution count 10: 15833 15828 15826 ... -0

Optimal solution found (tolerance 0.00e+00)
Best objective 1.583300000000e+04, best bound 1.583300000000e+04, gap 0.0000%
